Version identifier: 20.1.0.0 | 2020-11-10 | 9bedb6d68
Tried aggregator 2 times.
MIP Presolve eliminated 1958 rows and 1223 columns.
MIP Presolve modified 3458 coefficients.
Aggregator did 188 substitutions.
Reduced MIP has 1460 rows, 1196 columns, and 4675 nonzeros.
Reduced MIP has 314 binaries, 882 generals, 0 SOSs, and 0 indicators.
Presolve time = 0.02 sec. (7.93 ticks)
Found incumbent of value 167.000000 after 0.03 sec. (13.49 ticks)
Probing fixed 40 vars, tightened 260 bounds.
Probing time = 0.00 sec. (1.66 ticks)
Tried aggregator 1 time.
Detecting symmetries...
MIP Presolve eliminated 640 rows and 40 columns.
MIP Presolve modified 63 coefficients.
Reduced MIP has 820 rows, 1156 columns, and 2755 nonzeros.
Reduced MIP has 392 binaries, 764 generals, 0 SOSs, and 0 indicators.
Presolve time = 0.01 sec. (3.27 ticks)
Probing time = 0.00 sec. (0.29 ticks)
Clique table members: 121.
MIP emphasis: balance optimality and feasibility.
MIP search method: dynamic search.
Parallel mode: deterministic, using up to 24 threads.
Root relaxation solution time = 0.01 sec. (2.94 ticks)

        Nodes                                         Cuts/
   Node  Left     Objective  IInf  Best Integer    Best Bound    ItCnt     Gap

*     0+    0                          167.0000        0.0000           100.00%
      0     0        0.0000    50      167.0000        0.0000      260  100.00%
      0     0        2.1047   274      167.0000     Cuts: 304      506   98.74%
      0     0        3.6515   121      167.0000     Cuts: 117      821   97.81%
      0     0        3.7222   153      167.0000      Cuts: 52      873   97.77%
      0     0        3.7222   315      167.0000      Cuts: 56      946   97.77%
      0     0        3.8000    91      167.0000      Cuts: 29      972   97.72%
*     0+    0                           20.0000        3.8000            81.00%
      0     0        3.8171   127       20.0000      Cuts: 98     1033   80.91%
*     0+    0                           11.0000        3.8171            65.30%
      0     0        cutoff             11.0000       11.0000     1064    0.00%
Elapsed time = 0.50 sec. (95.95 ticks, tree = 0.01 MB, solutions = 3)

Implied bound cuts applied:  66
Flow cuts applied:  10
Mixed integer rounding cuts applied:  15
Zero-half cuts applied:  117
Gomory fractional cuts applied:  37

Root node processing (before b&c):
  Real time             =    0.50 sec. (96.08 ticks)
Parallel b&c, 24 threads:
  Real time             =    0.00 sec. (0.00 ticks)
  Sync time (average)   =    0.00 sec.
  Wait time (average)   =    0.00 sec.
                          ------------
Total (root+branch&cut) =    0.50 sec. (96.08 ticks)

Solution status = Optimal
Solution LB = 11
Solution UB = 11
Runtime = 0.50328 seconds
	Command being timed: "/home/min/git_repos/CS598MEBProject/CNT-ILP/build/cnt -s 2 ./output/k6_n40/simC_c1_k6_n40_u3_s1_del02.input-right.cnp"
	User time (seconds): 7.97
	System time (seconds): 0.07
	Percent of CPU this job got: 1531%
	Elapsed (wall clock) time (h:mm:ss or m:ss): 0:00.52
	Average shared text size (kbytes): 0
	Average unshared data size (kbytes): 0
	Average stack size (kbytes): 0
	Average total size (kbytes): 0
	Maximum resident set size (kbytes): 75920
	Average resident set size (kbytes): 0
	Major (requiring I/O) page faults: 0
	Minor (reclaiming a frame) page faults: 15777
	Voluntary context switches: 4470
	Involuntary context switches: 889
	Swaps: 0
	File system inputs: 0
	File system outputs: 16
	Socket messages sent: 0
	Socket messages received: 0
	Signals delivered: 0
	Page size (bytes): 4096
	Exit status: 0
